(set-logic ALL)
(declare-fun var0 () String)
(assert (str.in_re var0 (re.++ (re.+ (re.* (str.to_re "000"))) (re.++ (re.+ (re.union (str.to_re "1") (str.to_re "222"))) (re.++ (re.+ (re.+ (str.to_re "333"))) (re.++ (re.+ (re.union (str.to_re "444") (str.to_re "5"))) (re.++ (re.union (re.union (str.to_re "66") (str.to_re "777")) (re.union (str.to_re "888") (str.to_re "99"))) (re.++ (re.union (re.union (str.to_re "a") (str.to_re "b")) (re.union (str.to_re "ccc") (str.to_re "dd"))) (re.++ (re.union (re.union (str.to_re "e") (str.to_re "f")) (re.union (str.to_re "ggg") (str.to_re "h"))) (re.++ (re.union (re.+ (str.to_re "i")) (re.+ (str.to_re "j"))) (re.++ (re.+ (re.* (str.to_re "kk"))) (re.++ (re.union (re.+ (str.to_re "ll")) (re.+ (str.to_re "mmm"))) (re.++ (re.+ (re.+ (str.to_re "nn"))) (re.++ (re.union (re.+ (str.to_re "o")) (re.+ (str.to_re "ppp"))) (re.++ (re.+ (re.* (str.to_re "qq"))) (re.++ (re.+ (re.* (str.to_re "r"))) (re.++ (re.union (re.union (str.to_re "s") (str.to_re "t")) (re.union (str.to_re "uu") (str.to_re "v"))) (re.++ (re.* (re.* (str.to_re "ww"))) (re.++ (re.* (re.+ (str.to_re "xxx"))) (re.++ (re.union (re.+ (str.to_re "yy")) (re.+ (str.to_re "z"))) (re.++ (re.* (re.* (str.to_re "AAA"))) (re.++ (re.+ (re.union (str.to_re "B") (str.to_re "C"))) (re.++ (re.* (re.+ (str.to_re "DD"))) (re.++ (re.union (re.+ (str.to_re "EEE")) (re.+ (str.to_re "F"))) (re.++ (re.+ (re.union (str.to_re "GGG") (str.to_re "HHH"))) (re.++ (re.* (re.union (str.to_re "II") (str.to_re "JJJ"))) (re.++ (re.union (re.+ (str.to_re "K")) (re.+ (str.to_re "LL"))) (re.++ (re.+ (re.+ (str.to_re "M"))) (re.++ (re.* (re.* (str.to_re "NNN"))) (re.++ (re.* (re.union (str.to_re "OOO") (str.to_re "P"))) (re.++ (re.union (re.+ (str.to_re "QQ")) (re.+ (str.to_re "RRR"))) (re.++ (re.+ (re.union (str.to_re "S") (str.to_re "T"))) (re.++ (re.union (re.+ (str.to_re "UUU")) (re.+ (str.to_re "VV"))) (re.++ (re.+ (re.* (str.to_re "WW"))) (re.++ (re.union (re.* (str.to_re "XXX")) (re.* (str.to_re "Y"))) (re.++ (re.+ (re.union (str.to_re "ZZ") (str.to_re "!!"))) (re.++ (re.+ (re.* (str.to_re """"""))) (re.++ (re.union (re.+ (str.to_re "#")) (re.+ (str.to_re "$$$"))) (re.++ (re.* (re.+ (str.to_re "%"))) (re.++ (re.+ (re.+ (str.to_re "&"))) (re.++ (re.+ (re.union (str.to_re "'''") (str.to_re "(("))) (re.++ (re.union (re.union (str.to_re "))") (str.to_re "***")) (re.union (str.to_re "++") (str.to_re ","))) (re.++ (re.* (re.+ (str.to_re "--"))) (re.++ (re.union (re.union (str.to_re "..") (str.to_re "///")) (re.union (str.to_re "::") (str.to_re ";;;"))) (re.++ (re.union (re.* (str.to_re "<<<")) (re.* (str.to_re "=="))) (re.++ (re.union (re.+ (str.to_re ">")) (re.+ (str.to_re "???"))) (re.++ (re.union (re.* (str.to_re "@@")) (re.* (str.to_re "[["))) (re.++ (re.union (re.* (str.to_re "\\\\\\")) (re.* (str.to_re "]]"))) (re.++ (re.* (re.* (str.to_re "^^"))) (re.++ (re.union (re.* (str.to_re "___")) (re.* (str.to_re "`"))) (re.++ (re.+ (re.union (str.to_re "{{{") (str.to_re "|"))) (re.++ (re.* (re.* (str.to_re "}}}"))) (re.++ (re.union (re.* (str.to_re "~~")) (re.* (str.to_re "00"))) (re.++ (re.* (re.union (str.to_re "111") (str.to_re "22"))) (re.++ (re.+ (re.union (str.to_re "333") (str.to_re "44"))) (re.++ (re.+ (re.+ (str.to_re "555"))) (re.++ (re.union (re.+ (str.to_re "6")) (re.+ (str.to_re "77"))) (re.++ (re.+ (re.* (str.to_re "8"))) (re.++ (re.union (re.union (str.to_re "99") (str.to_re "aaa")) (re.union (str.to_re "bbb") (str.to_re "cc"))) (re.++ (re.union (re.+ (str.to_re "ddd")) (re.+ (str.to_re "e"))) (re.++ (re.union (re.* (str.to_re "f")) (re.* (str.to_re "g"))) (re.++ (re.union (re.* (str.to_re "h")) (re.* (str.to_re "ii"))) (re.++ (re.* (re.union (str.to_re "jj") (str.to_re "kkk"))) (re.++ (re.union (re.+ (str.to_re "ll")) (re.+ (str.to_re "m"))) (re.++ (re.union (re.* (str.to_re "nn")) (re.* (str.to_re "o"))) (re.++ (re.* (re.union (str.to_re "pp") (str.to_re "q"))) (re.++ (re.* (re.union (str.to_re "rrr") (str.to_re "sss"))) (re.++ (re.union (re.+ (str.to_re "ttt")) (re.+ (str.to_re "uuu"))) (re.++ (re.+ (re.+ (str.to_re "v"))) (re.++ (re.* (re.* (str.to_re "www"))) (re.++ (re.+ (re.union (str.to_re "xxx") (str.to_re "yy"))) (re.++ (re.union (re.+ (str.to_re "z")) (re.+ (str.to_re "AA"))) (re.++ (re.* (re.* (str.to_re "BBB"))) (re.++ (re.* (re.union (str.to_re "CCC") (str.to_re "DDD"))) (re.++ (re.* (re.* (str.to_re "EEE"))) (re.++ (re.union (re.* (str.to_re "F")) (re.* (str.to_re "GGG"))) (re.++ (re.* (re.union (str.to_re "HH") (str.to_re "III"))) (re.++ (re.union (re.+ (str.to_re "JJJ")) (re.+ (str.to_re "K"))) (re.++ (re.+ (re.union (str.to_re "L") (str.to_re "M"))) (re.++ (re.+ (re.union (str.to_re "NN") (str.to_re "OOO"))) (re.++ (re.+ (re.+ (str.to_re "P"))) (re.++ (re.union (re.+ (str.to_re "QQQ")) (re.+ (str.to_re "R"))) (re.++ (re.union (re.+ (str.to_re "S")) (re.+ (str.to_re "T"))) (re.++ (re.* (re.+ (str.to_re "UUU"))) (re.++ (re.union (re.+ (str.to_re "VV")) (re.+ (str.to_re "W"))) (re.++ (re.* (re.+ (str.to_re "X"))) (re.++ (re.+ (re.* (str.to_re "YY"))) (re.++ (re.+ (re.* (str.to_re "Z"))) (re.++ (re.union (re.+ (str.to_re "!!")) (re.+ (str.to_re """"""""))) (re.++ (re.* (re.+ (str.to_re "##"))) (re.++ (re.+ (re.union (str.to_re "$$") (str.to_re "%%"))) (re.++ (re.* (re.+ (str.to_re "&&&"))) (re.++ (re.* (re.+ (str.to_re "''"))) (re.+ (re.union (str.to_re "(") (str.to_re ")"))))))))))))))))))))))))))))))))))))))))))))))))))))))))))))))))))))))))))))))))))))))))))))))))
(check-sat)